;; unsat

(declare-const x1 sl.list.loc)
(declare-const x2 sl.list.loc)
(declare-const x3 sl.list.loc)
(declare-const x4 sl.list.loc)
(declare-const x5 sl.list.loc)
(declare-const x6 sl.list.loc)
(declare-const x7 sl.list.loc)
(declare-const x8 sl.list.loc)
(declare-const x9 sl.list.loc)
(declare-const x10 sl.list.loc)
(declare-const x11 sl.list.loc)
(declare-const x12 sl.list.loc)
(declare-const x13 sl.list.loc)
(declare-const x14 sl.list.loc)
(declare-const x15 sl.list.loc)
(declare-const x16 sl.list.loc)
(declare-const x17 sl.list.loc)
(declare-const x18 sl.list.loc)
(declare-const x19 sl.list.loc)

(assert (sl.sepcon (sl.sepcon (sl.sepcon (sl.sepcon (sl.sepcon (sl.sepcon (sl.sepcon (sl.sepcon (sl.sepcon (sl.sepcon (sl.sepcon (sl.sepcon (sl.sepcon (sl.sepcon (sl.sepcon (sl.sepcon (sl.sepcon (sl.sepcon (sl.sepcon (sl.sepcon (sl.sepcon (sl.sepcon (sl.sepcon (sl.list.eq sl.list.null sl.list.null)
 (sl.list.neq x6 x13)
)
 (sl.list.neq x11 x16)
)
 (sl.list.neq x11 x13)
)
 (sl.list.neq x11 x15)
)
 (sl.list.neq x3 x4)
)
 (sl.list.neq x3 x5)
)
 (sl.list.neq x17 x18)
)
 (sl.list.neq x2 x8)
)
 (sl.list.neq x2 x13)
)
 (sl.list.neq x2 x14)
)
 (sl.list.neq x14 x18)
)
 (sl.list.neq x14 x16)
)
 (sl.list.neq x8 x9)
)
 (sl.list.neq x4 x18)
)
 (sl.list.neq x4 x19)
)
 (sl.list.neq x1 x6)
)
 (sl.list.neq x1 x13)
)
 (sl.list.neq x1 x15)
)
 (sl.list.neq x1 x14)
)
 (sl.list.neq x13 x19)
)
 (sl.list.neq x5 x16)
)
 (sl.list.neq x5 x15)
)
 (sl.sepcon (sl.sepcon (sl.sepcon (sl.sepcon (sl.sepcon (sl.sepcon (sl.sepcon (sl.sepcon (sl.sepcon (sl.sepcon (sl.sepcon (sl.sepcon (sl.list.seg x10 x1)
 (sl.list.seg x18 x15)
)
 (sl.list.seg x1 x14)
)
 (sl.list.seg x1 x3)
)
 (sl.list.seg x12 x13)
)
 (sl.list.seg x2 x5)
)
 (sl.list.seg x2 x12)
)
 (sl.list.seg x2 x18)
)
 (sl.list.seg x2 x8)
)
 (sl.list.seg x9 x5)
)
 (sl.list.seg x7 x5)
)
 (sl.list.seg x11 x9)
)
 (sl.list.seg x11 x7)
)
)
)

